benchmarks_CP/INST_36x36/45/inst36x36_45_16.dzn
S=6;
start=[|
-1,	17,	-1,	-1,	36,	-1,	-1,	-1,	13,	18,	6,	14,	26,	11,	4,	-1,	-1,	19,	23,	-1,	-1,	29,	-1,	-1,	-1,	-1,	-1,	25,	-1,	-1,	31,	12,	-1,	32,	-1,	-1|
-1,	30,	-1,	-1,	31,	-1,	4,	25,	-1,	29,	-1,	-1,	7,	-1,	-1,	-1,	20,	34,	16,	-1,	8,	27,	15,	-1,	-1,	-1,	-1,	-1,	-1,	9,	-1,	-1,	13,	-1,	-1,	-1|
-1,	-1,	-1,	18,	25,	14,	-1,	-1,	20,	33,	1,	-1,	-1,	29,	13,	28,	-1,	30,	12,	4,	-1,	5,	11,	-1,	-1,	-1,	22,	-1,	31,	-1,	-1,	16,	24,	6,	7,	-1|
-1,	-1,	15,	-1,	23,	-1,	-1,	-1,	-1,	-1,	8,	-1,	-1,	-1,	16,	31,	-1,	-1,	32,	-1,	6,	28,	-1,	-1,	-1,	5,	30,	-1,	29,	13,	25,	-1,	-1,	9,	-1,	-1|
-1,	10,	29,	27,	-1,	16,	-1,	-1,	23,	24,	9,	15,	-1,	-1,	-1,	-1,	-1,	21,	14,	-1,	-1,	-1,	-1,	22,	-1,	-1,	18,	-1,	8,	20,	-1,	-1,	28,	30,	-1,	-1|
22,	-1,	34,	-1,	-1,	12,	19,	31,	-1,	-1,	-1,	-1,	-1,	14,	-1,	1,	-1,	23,	-1,	-1,	-1,	-1,	-1,	-1,	-1,	-1,	-1,	-1,	-1,	10,	-1,	-1,	-1,	29,	-1,	15|
16,	36,	-1,	-1,	-1,	-1,	-1,	-1,	32,	13,	-1,	24,	11,	-1,	26,	-1,	-1,	4,	-1,	-1,	-1,	-1,	-1,	-1,	-1,	17,	27,	9,	-1,	3,	7,	-1,	-1,	-1,	10,	34|
-1,	32,	-1,	21,	-1,	20,	-1,	15,	5,	-1,	17,	1,	35,	-1,	-1,	-1,	33,	-1,	-1,	-1,	-1,	4,	-1,	-1,	-1,	-1,	-1,	31,	-1,	-1,	30,	-1,	18,	-1,	19,	-1|
-1,	-1,	-1,	-1,	19,	-1,	-1,	10,	-1,	31,	-1,	-1,	-1,	-1,	-1,	-1,	28,	-1,	-1,	-1,	27,	34,	18,	9,	24,	6,	-1,	5,	2,	-1,	-1,	22,	11,	25,	-1,	20|
1,	25,	35,	34,	-1,	-1,	-1,	-1,	7,	-1,	-1,	-1,	-1,	-1,	-1,	-1,	-1,	18,	-1,	-1,	31,	-1,	26,	5,	-1,	-1,	11,	-1,	-1,	-1,	6,	-1,	-1,	15,	2,	-1|
5,	2,	3,	-1,	-1,	-1,	22,	33,	-1,	25,	-1,	-1,	-1,	-1,	23,	9,	-1,	6,	19,	7,	32,	-1,	17,	12,	15,	-1,	26,	-1,	20,	-1,	13,	-1,	-1,	1,	-1,	-1|
9,	23,	27,	-1,	-1,	-1,	-1,	-1,	11,	-1,	26,	-1,	-1,	22,	-1,	5,	-1,	1,	6,	25,	-1,	3,	-1,	-1,	-1,	-1,	-1,	8,	-1,	-1,	-1,	32,	29,	-1,	-1,	-1|
32,	-1,	-1,	-1,	35,	36,	25,	-1,	4,	-1,	-1,	-1,	-1,	18,	-1,	12,	1,	-1,	33,	-1,	-1,	-1,	2,	-1,	-1,	31,	19,	-1,	-1,	-1,	11,	7,	-1,	-1,	13,	3|
-1,	14,	5,	22,	-1,	31,	7,	-1,	-1,	6,	29,	23,	-1,	-1,	-1,	-1,	30,	26,	-1,	-1,	3,	-1,	4,	35,	-1,	18,	34,	-1,	15,	-1,	-1,	25,	17,	-1,	-1,	19|
19,	12,	-1,	11,	3,	-1,	-1,	-1,	8,	9,	5,	22,	6,	-1,	-1,	-1,	-1,	-1,	10,	36,	24,	-1,	21,	28,	-1,	-1,	20,	13,	26,	-1,	14,	-1,	33,	34,	35,	-1|
4,	-1,	17,	-1,	24,	-1,	-1,	-1,	10,	30,	20,	-1,	-1,	-1,	-1,	-1,	36,	-1,	29,	-1,	-1,	13,	-1,	-1,	27,	-1,	5,	12,	25,	-1,	-1,	6,	-1,	-1,	-1,	-1|
-1,	15,	21,	28,	-1,	29,	-1,	-1,	-1,	27,	12,	-1,	-1,	31,	35,	-1,	7,	17,	11,	-1,	18,	-1,	8,	19,	4,	9,	-1,	-1,	6,	2,	24,	10,	22,	16,	-1,	36|
-1,	27,	-1,	25,	2,	-1,	-1,	-1,	36,	-1,	11,	21,	-1,	3,	33,	23,	-1,	-1,	-1,	30,	-1,	17,	-1,	-1,	-1,	-1,	-1,	24,	-1,	-1,	-1,	20,	-1,	-1,	-1,	-1|
14,	28,	33,	-1,	30,	-1,	27,	9,	-1,	-1,	23,	11,	-1,	16,	-1,	-1,	-1,	-1,	2,	-1,	-1,	-1,	-1,	-1,	25,	29,	36,	1,	5,	12,	8,	-1,	3,	10,	-1,	26|
15,	-1,	-1,	-1,	-1,	-1,	33,	22,	-1,	-1,	-1,	-1,	30,	-1,	25,	35,	6,	-1,	-1,	-1,	-1,	24,	23,	-1,	9,	11,	-1,	-1,	27,	26,	19,	34,	4,	2,	-1,	12|
-1,	-1,	-1,	-1,	-1,	21,	-1,	35,	-1,	-1,	-1,	36,	17,	28,	24,	27,	-1,	-1,	-1,	-1,	-1,	-1,	-1,	31,	-1,	10,	-1,	-1,	19,	4,	32,	1,	25,	-1,	-1,	-1|
-1,	-1,	11,	31,	-1,	19,	3,	-1,	-1,	-1,	21,	2,	-1,	5,	-1,	-1,	10,	12,	-1,	-1,	-1,	22,	-1,	-1,	32,	-1,	7,	-1,	-1,	35,	28,	-1,	30,	-1,	-1,	-1|
-1,	-1,	6,	-1,	13,	-1,	5,	28,	-1,	-1,	-1,	25,	-1,	1,	2,	-1,	3,	33,	-1,	12,	36,	-1,	-1,	21,	-1,	-1,	-1,	18,	-1,	-1,	27,	11,	-1,	-1,	22,	-1|
-1,	18,	-1,	23,	-1,	-1,	31,	26,	-1,	-1,	24,	-1,	-1,	4,	-1,	-1,	21,	8,	20,	-1,	-1,	1,	-1,	27,	28,	3,	-1,	22,	16,	33,	-1,	-1,	-1,	14,	5,	13|
10,	-1,	-1,	-1,	9,	27,	20,	-1,	-1,	-1,	2,	-1,	-1,	23,	-1,	-1,	13,	-1,	34,	19,	15,	12,	22,	-1,	-1,	16,	-1,	26,	28,	-1,	29,	30,	6,	4,	-1,	17|
28,	-1,	2,	3,	-1,	-1,	23,	29,	-1,	-1,	35,	-1,	21,	8,	-1,	-1,	-1,	36,	-1,	-1,	-1,	-1,	6,	-1,	10,	19,	9,	-1,	17,	-1,	12,	13,	-1,	-1,	32,	-1|
31,	-1,	-1,	6,	17,	-1,	-1,	32,	-1,	3,	-1,	-1,	27,	-1,	-1,	-1,	-1,	-1,	-1,	-1,	-1,	-1,	-1,	-1,	21,	8,	4,	-1,	-1,	22,	35,	19,	34,	28,	36,	-1|
23,	19,	-1,	-1,	16,	-1,	-1,	-1,	21,	17,	-1,	27,	28,	-1,	-1,	4,	32,	5,	35,	26,	29,	-1,	-1,	11,	2,	12,	-1,	-1,	36,	6,	20,	3,	-1,	-1,	25,	-1|
-1,	20,	-1,	35,	-1,	-1,	-1,	11,	26,	-1,	16,	-1,	-1,	-1,	18,	10,	-1,	-1,	-1,	-1,	-1,	8,	-1,	32,	-1,	27,	-1,	-1,	34,	-1,	22,	2,	23,	-1,	33,	-1|
-1,	4,	-1,	-1,	-1,	11,	10,	-1,	-1,	22,	7,	-1,	-1,	-1,	-1,	-1,	17,	-1,	13,	14,	30,	36,	-1,	-1,	-1,	-1,	-1,	15,	35,	-1,	18,	-1,	-1,	31,	-1,	-1|
34,	-1,	-1,	10,	21,	-1,	-1,	6,	24,	-1,	-1,	7,	8,	20,	-1,	14,	-1,	-1,	-1,	-1,	13,	-1,	-1,	-1,	-1,	4,	-1,	-1,	9,	1,	-1,	33,	27,	-1,	-1,	28|
-1,	8,	4,	5,	33,	-1,	-1,	23,	25,	-1,	10,	-1,	2,	-1,	-1,	36,	9,	-1,	28,	3,	-1,	-1,	-1,	29,	-1,	21,	15,	-1,	11,	-1,	16,	35,	7,	-1,	1,	-1|
-1,	-1,	-1,	26,	1,	-1,	-1,	-1,	-1,	-1,	33,	29,	-1,	-1,	-1,	-1,	-1,	24,	-1,	21,	-1,	-1,	-1,	23,	-1,	-1,	32,	-1,	22,	16,	-1,	18,	-1,	36,	-1,	-1|
-1,	-1,	23,	-1,	-1,	-1,	36,	27,	-1,	1,	31,	-1,	-1,	-1,	12,	-1,	22,	-1,	26,	-1,	20,	-1,	-1,	-1,	8,	-1,	17,	-1,	13,	-1,	-1,	29,	10,	-1,	-1,	25|
-1,	16,	7,	-1,	-1,	-1,	-1,	17,	9,	-1,	-1,	19,	-1,	-1,	-1,	-1,	23,	10,	-1,	-1,	2,	-1,	-1,	-1,	-1,	33,	25,	-1,	30,	18,	-1,	-1,	-1,	24,	-1,	-1|
-1,	29,	-1,	-1,	-1,	-1,	11,	-1,	-1,	-1,	34,	-1,	-1,	-1,	-1,	21,	26,	3,	-1,	-1,	-1,	-1,	31,	33,	5,	2,	10,	-1,	-1,	36,	23,	-1,	12,	13,	-1,	-1|];
